Assets/LKHProbs~/skull.20.tsp
NAME : GeneratedProblem
COMMENT : SVGCrosshatch
TYPE : TSP
DIMENSION : 24
EDGE_WEIGHT_TYPE : EUC_2D
NODE_COORD_SECTION
1 8400 9600
2 8400 9700
3 8500 9400
4 8500 9500
5 8500 9600
6 8500 9700
7 8600 9200
8 8600 9300
9 8600 9400
10 8600 9500
11 8600 9600
12 8600 9700
13 8700 9200
14 8700 9300
15 8700 9400
16 8700 9500
17 8700 9600
18 8700 9700
19 8800 9400
20 8800 9500
21 8800 9600
22 8800 9700
23 8900 9600
24 8900 9700
EOF
