Assets/LKHProbs~/skull.20.out.txt
NAME : GeneratedProblem.2400.tour
COMMENT : Length = 2400
COMMENT : Found by LKH [Keld Helsgaun] Sun Nov 25 13:17:40 2018
TYPE : TOUR
DIMENSION : 24
TOUR_SECTION
1
2
6
12
18
22
24
23
21
17
11
10
16
20
19
15
14
13
7
8
9
3
4
5
-1
EOF
